p edge 110 593
e 1 5
e 1 44
e 1 65
e 1 66
e 1 73
e 1 83
e 1 89
e 1 98
e 2 9
e 2 16
e 2 22
e 2 49
e 2 58
e 2 66
e 2 80
e 2 92
e 3 7
e 3 11
e 3 24
e 3 37
e 3 53
e 3 69
e 3 73
e 3 74
e 3 82
e 3 83
e 3 95
e 3 101
e 3 105
e 4 10
e 4 23
e 4 38
e 4 44
e 4 107
e 4 108
e 5 6
e 5 14
e 5 29
e 5 39
e 5 40
e 5 43
e 5 45
e 5 63
e 5 76
e 5 85
e 5 89
e 5 90
e 5 95
e 5 104
e 6 7
e 6 15
e 6 22
e 6 30
e 6 32
e 6 33
e 6 37
e 6 71
e 6 92
e 6 109
e 7 8
e 7 16
e 7 34
e 7 38
e 7 45
e 7 60
e 7 75
e 7 76
e 7 81
e 7 83
e 7 97
e 7 102
e 7 103
e 8 26
e 8 29
e 8 30
e 8 36
e 8 38
e 8 39
e 8 41
e 8 59
e 8 62
e 8 65
e 8 67
e 8 68
e 8 75
e 8 92
e 8 95
e 8 97
e 8 99
e 8 100
e 8 101
e 8 104
e 8 110
e 9 11
e 9 13
e 9 16
e 9 34
e 9 43
e 9 44
e 9 62
e 9 70
e 9 91
e 9 109
e 10 16
e 10 17
e 10 30
e 10 53
e 10 65
e 10 74
e 10 97
e 10 106
e 11 38
e 11 43
e 11 45
e 11 73
e 11 80
e 11 100
e 12 14
e 12 23
e 12 24
e 12 33
e 12 42
e 12 44
e 12 68
e 12 77
e 12 88
e 12 90
e 12 101
e 12 102
e 12 109
e 13 17
e 13 18
e 13 43
e 13 51
e 13 55
e 13 58
e 13 108
e 14 23
e 14 26
e 14 32
e 14 44
e 14 47
e 14 52
e 14 75
e 14 83
e 14 89
e 14 99
e 15 16
e 15 31
e 15 33
e 15 54
e 15 65
e 15 71
e 15 75
e 15 79
e 15 83
e 15 84
e 15 105
e 15 110
e 16 17
e 16 25
e 16 50
e 16 73
e 16 87
e 16 89
e 16 93
e 16 94
e 16 98
e 16 102
e 17 18
e 17 25
e 17 32
e 17 36
e 17 40
e 17 46
e 17 56
e 17 77
e 17 92
e 17 98
e 17 108
e 18 27
e 18 48
e 18 59
e 18 109
e 19 21
e 19 32
e 19 47
e 19 65
e 19 67
e 19 84
e 19 86
e 19 101
e 19 103
e 19 104
e 20 31
e 20 35
e 20 43
e 20 51
e 20 70
e 20 73
e 20 77
e 20 82
e 20 93
e 20 94
e 20 98
e 20 99
e 20 101
e 20 104
e 21 49
e 21 63
e 21 68
e 21 95
e 21 107
e 22 33
e 22 36
e 22 40
e 22 80
e 22 88
e 22 93
e 22 98
e 22 104
e 23 31
e 23 32
e 23 67
e 23 71
e 23 92
e 23 99
e 23 101
e 24 27
e 24 64
e 24 87
e 24 89
e 24 90
e 24 95
e 24 102
e 24 103
e 24 110
e 25 36
e 25 58
e 25 64
e 25 66
e 25 76
e 25 77
e 25 89
e 25 94
e 25 106
e 26 43
e 26 62
e 26 68
e 26 78
e 26 84
e 26 92
e 26 96
e 27 36
e 27 59
e 27 66
e 27 81
e 28 47
e 28 71
e 29 30
e 29 44
e 29 70
e 29 81
e 29 97
e 29 98
e 29 102
e 29 108
e 30 36
e 30 43
e 30 45
e 30 65
e 30 67
e 30 85
e 30 89
e 30 94
e 30 99
e 30 102
e 30 104
e 31 32
e 31 70
e 31 72
e 32 62
e 32 65
e 32 73
e 32 79
e 32 82
e 32 86
e 33 42
e 33 47
e 33 70
e 33 80
e 33 86
e 33 89
e 33 105
e 34 35
e 34 46
e 34 54
e 34 58
e 34 96
e 34 103
e 35 40
e 35 59
e 35 70
e 35 82
e 35 83
e 35 92
e 35 95
e 35 101
e 35 110
e 36 43
e 36 50
e 36 53
e 36 56
e 36 72
e 36 76
e 36 78
e 36 92
e 36 95
e 36 102
e 36 106
e 36 107
e 37 58
e 37 73
e 37 96
e 37 103
e 37 109
e 38 57
e 38 61
e 38 66
e 38 69
e 38 84
e 38 92
e 38 98
e 38 105
e 39 40
e 39 51
e 39 57
e 39 73
e 39 91
e 40 45
e 40 54
e 40 57
e 40 58
e 40 68
e 40 70
e 40 75
e 40 78
e 40 82
e 40 103
e 40 107
e 40 109
e 40 110
e 41 70
e 41 73
e 41 86
e 41 87
e 41 99
e 41 109
e 42 49
e 42 51
e 42 63
e 42 75
e 42 76
e 42 85
e 42 106
e 43 47
e 43 69
e 43 76
e 43 86
e 43 107
e 44 65
e 44 103
e 45 54
e 45 55
e 45 65
e 45 74
e 45 82
e 45 92
e 45 95
e 45 101
e 46 47
e 46 63
e 46 86
e 46 87
e 46 104
e 47 50
e 47 68
e 47 74
e 47 92
e 47 97
e 47 107
e 48 84
e 48 85
e 48 87
e 48 88
e 49 63
e 49 66
e 49 69
e 49 70
e 49 77
e 49 81
e 49 87
e 49 89
e 49 102
e 50 58
e 50 59
e 50 60
e 50 62
e 50 76
e 50 84
e 50 93
e 51 61
e 51 63
e 51 66
e 51 72
e 51 85
e 51 89
e 51 93
e 51 98
e 51 99
e 51 106
e 52 53
e 52 56
e 52 67
e 52 68
e 52 87
e 53 73
e 53 74
e 53 79
e 53 85
e 53 91
e 53 92
e 53 93
e 53 99
e 53 104
e 53 109
e 54 60
e 54 94
e 54 98
e 54 102
e 55 59
e 55 76
e 55 97
e 55 104
e 55 110
e 56 76
e 56 104
e 57 86
e 57 93
e 57 103
e 57 106
e 58 60
e 58 72
e 58 83
e 58 95
e 59 65
e 59 71
e 59 87
e 59 88
e 59 97
e 59 100
e 59 105
e 59 109
e 60 74
e 60 79
e 61 64
e 61 70
e 61 80
e 61 81
e 61 92
e 61 93
e 61 106
e 61 110
e 62 73
e 62 81
e 62 86
e 62 98
e 62 106
e 63 76
e 63 80
e 63 87
e 63 98
e 63 100
e 64 100
e 64 101
e 64 106
e 65 99
e 66 87
e 66 109
e 67 75
e 67 82
e 67 102
e 68 71
e 68 82
e 68 89
e 68 100
e 68 104
e 69 73
e 69 76
e 69 79
e 69 93
e 69 96
e 69 103
e 70 71
e 70 72
e 70 91
e 70 100
e 70 101
e 70 104
e 71 82
e 71 94
e 71 96
e 71 103
e 71 107
e 72 77
e 72 92
e 72 95
e 72 101
e 72 107
e 72 108
e 73 75
e 73 83
e 73 97
e 74 82
e 74 110
e 75 79
e 75 93
e 75 102
e 75 103
e 75 105
e 75 107
e 75 108
e 75 110
e 76 81
e 76 88
e 77 80
e 77 91
e 77 92
e 77 97
e 77 102
e 77 105
e 77 107
e 78 84
e 78 90
e 78 94
e 78 103
e 79 81
e 79 83
e 79 87
e 79 95
e 79 96
e 79 99
e 79 104
e 80 104
e 80 107
e 81 93
e 81 107
e 82 87
e 82 88
e 82 89
e 82 94
e 83 88
e 83 90
e 83 103
e 84 90
e 84 91
e 84 98
e 85 90
e 85 101
e 86 88
e 86 105
e 87 97
e 87 108
e 88 89
e 88 91
e 88 99
e 89 92
e 89 102
e 90 99
e 90 108
e 92 101
e 93 110
e 94 97
e 94 101
e 95 98
e 95 102
e 95 106
e 95 107
e 98 109
e 99 100
e 100 101
e 101 104
e 106 108
